!b3lyp TightSCF cc-pvtz

*xyz ${charge} ${mult}
${element} 0.0 0.0 0.0
*
